Problem:    Alpinisti
Rows:       37
Columns:    80 (80 integer, 80 binary)
Non-zeros:  480
Status:     INTEGER OPTIMAL
Objective:  livelloischio = 1.75 (MINimum)

   No.   Row name        Activity     Lower bound   Upper bound
------ ------------    ------------- ------------- -------------
     1 assegnamento[1]
                                   0                           1 
     2 assegnamento[2]
                                   1                           1 
     3 assegnamento[3]
                                   1                           1 
     4 assegnamento[4]
                                   1                           1 
     5 assegnamento[5]
                                   1                           1 
     6 assegnamento[6]
                                   0                           1 
     7 assegnamento[7]
                                   0                           1 
     8 assegnamento[8]
                                   1                           1 
     9 assegnamento[9]
                                   1                           1 
    10 assegnamento[10]
                                   1                           1 
    11 assegnamento[11]
                                   1                           1 
    12 assegnamento[12]
                                   1                           1 
    13 assegnamento[13]
                                   1                           1 
    14 assegnamento[14]
                                   1                           1 
    15 assegnamento[15]
                                   1                           1 
    16 assegnamento[16]
                                   1                           1 
    17 assegnamento[17]
                                   1                           1 
    18 assegnamento[18]
                                   0                           1 
    19 assegnamento[19]
                                   1                           1 
    20 assegnamento[20]
                                   1                           1 
    21 livelloMinimo[1,1]
                                  16            16               
    22 livelloMinimo[1,2]
                                  16            16               
    23 livelloMinimo[1,3]
                                  16            16               
    24 livelloMinimo[1,4]
                                  17            16               
    25 livelloMinimo[2,1]
                                  17            16               
    26 livelloMinimo[2,2]
                                  16            16               
    27 livelloMinimo[2,3]
                                  16            16               
    28 livelloMinimo[2,4]
                                  17            16               
    29 livelloMinimo[3,1]
                                  16            16               
    30 livelloMinimo[3,2]
                                  16            16               
    31 livelloMinimo[3,3]
                                  16            16               
    32 livelloMinimo[3,4]
                                  16            16               
    33 riempimentoSquadre[1]
                                   4             4             = 
    34 riempimentoSquadre[2]
                                   4             4             = 
    35 riempimentoSquadre[3]
                                   4             4             = 
    36 riempimentoSquadre[4]
                                   4             4             = 
    37 livelloischio
                                1.75                             

   No. Column name       Activity     Lower bound   Upper bound
------ ------------    ------------- ------------- -------------
     1 x[1,1]       *              0             0             1 
     2 x[1,2]       *              0             0             1 
     3 x[1,3]       *              0             0             1 
     4 x[1,4]       *              0             0             1 
     5 x[2,1]       *              0             0             1 
     6 x[2,2]       *              1             0             1 
     7 x[2,3]       *              0             0             1 
     8 x[2,4]       *              0             0             1 
     9 x[3,1]       *              0             0             1 
    10 x[3,2]       *              1             0             1 
    11 x[3,3]       *              0             0             1 
    12 x[3,4]       *              0             0             1 
    13 x[4,1]       *              0             0             1 
    14 x[4,2]       *              0             0             1 
    15 x[4,3]       *              1             0             1 
    16 x[4,4]       *              0             0             1 
    17 x[5,1]       *              1             0             1 
    18 x[5,2]       *              0             0             1 
    19 x[5,3]       *              0             0             1 
    20 x[5,4]       *              0             0             1 
    21 x[6,1]       *              0             0             1 
    22 x[6,2]       *              0             0             1 
    23 x[6,3]       *              0             0             1 
    24 x[6,4]       *              0             0             1 
    25 x[7,1]       *              0             0             1 
    26 x[7,2]       *              0             0             1 
    27 x[7,3]       *              0             0             1 
    28 x[7,4]       *              0             0             1 
    29 x[8,1]       *              1             0             1 
    30 x[8,2]       *              0             0             1 
    31 x[8,3]       *              0             0             1 
    32 x[8,4]       *              0             0             1 
    33 x[9,1]       *              0             0             1 
    34 x[9,2]       *              1             0             1 
    35 x[9,3]       *              0             0             1 
    36 x[9,4]       *              0             0             1 
    37 x[10,1]      *              0             0             1 
    38 x[10,2]      *              0             0             1 
    39 x[10,3]      *              0             0             1 
    40 x[10,4]      *              1             0             1 
    41 x[11,1]      *              0             0             1 
    42 x[11,2]      *              0             0             1 
    43 x[11,3]      *              1             0             1 
    44 x[11,4]      *              0             0             1 
    45 x[12,1]      *              0             0             1 
    46 x[12,2]      *              0             0             1 
    47 x[12,3]      *              0             0             1 
    48 x[12,4]      *              1             0             1 
    49 x[13,1]      *              0             0             1 
    50 x[13,2]      *              0             0             1 
    51 x[13,3]      *              0             0             1 
    52 x[13,4]      *              1             0             1 
    53 x[14,1]      *              0             0             1 
    54 x[14,2]      *              0             0             1 
    55 x[14,3]      *              1             0             1 
    56 x[14,4]      *              0             0             1 
    57 x[15,1]      *              0             0             1 
    58 x[15,2]      *              0             0             1 
    59 x[15,3]      *              0             0             1 
    60 x[15,4]      *              1             0             1 
    61 x[16,1]      *              0             0             1 
    62 x[16,2]      *              0             0             1 
    63 x[16,3]      *              1             0             1 
    64 x[16,4]      *              0             0             1 
    65 x[17,1]      *              0             0             1 
    66 x[17,2]      *              1             0             1 
    67 x[17,3]      *              0             0             1 
    68 x[17,4]      *              0             0             1 
    69 x[18,1]      *              0             0             1 
    70 x[18,2]      *              0             0             1 
    71 x[18,3]      *              0             0             1 
    72 x[18,4]      *              0             0             1 
    73 x[19,1]      *              1             0             1 
    74 x[19,2]      *              0             0             1 
    75 x[19,3]      *              0             0             1 
    76 x[19,4]      *              0             0             1 
    77 x[20,1]      *              1             0             1 
    78 x[20,2]      *              0             0             1 
    79 x[20,3]      *              0             0             1 
    80 x[20,4]      *              0             0             1 

Integer feasibility conditions:

KKT.PE: max.abs.err = 0.00e+000 on row 0
        max.rel.err = 0.00e+000 on row 0
        High quality

KKT.PB: max.abs.err = 0.00e+000 on row 0
        max.rel.err = 0.00e+000 on row 0
        High quality

End of output
